Version identifier: 22.1.0.0 | 2022-03-09 | 1a383f8ce
CPXPARAM_Threads                                 1
CPXPARAM_MIP_Strategy_VariableSelect             3
CPXPARAM_TimeLimit                               599.99998414799995
1 of 1 MIP starts provided solutions.
MIP start 'm1' defined initial solution with objective 1.0000.
Tried aggregator 1 time.
MIP Presolve eliminated 11 rows and 0 columns.
MIP Presolve modified 3 coefficients.
Reduced MIP has 2113 rows, 7500 columns, and 94770 nonzeros.
Reduced MIP has 7500 binaries, 0 generals, 0 SOSs, and 0 indicators.
Presolve time = 0.06 sec. (41.57 ticks)
Probing time = 0.01 sec. (4.32 ticks)
Tried aggregator 1 time.
Detecting symmetries...
Reduced MIP has 2113 rows, 7500 columns, and 94770 nonzeros.
Reduced MIP has 7500 binaries, 0 generals, 0 SOSs, and 0 indicators.
Presolve time = 0.07 sec. (49.45 ticks)
Probing time = 0.01 sec. (4.32 ticks)
Clique table members: 898.
MIP emphasis: balance optimality and feasibility.
MIP search method: dynamic search.
Parallel mode: none, using 1 thread.
Root relaxation solution time = 1.73 sec. (1723.47 ticks)

        Nodes                                         Cuts/
   Node  Left     Objective  IInf  Best Integer    Best Bound    ItCnt     Gap

*     0+    0                            1.0000     7500.0000              --- 
      0     0      300.0000  1122        1.0000      300.0000     5433     --- 
      0     0      300.0000   333        1.0000    Cliques: 6     8991     --- 
      0     0      300.0000   264        1.0000    Cliques: 1    10605     --- 
      0     0      300.0000   244        1.0000       Cuts: 4    11008     --- 
*     0+    0                          136.0000      300.0000           120.59%
*     0+    0                          196.0000      300.0000            53.06%
*     0+    0                          279.0000      300.0000             7.53%
*     0+    0                          284.0000      300.0000             5.63%
*     0+    0                          292.0000      300.0000             2.74%
      0     0        cutoff            292.0000      300.0000    11008    2.74%
      0     0      300.0000   347      292.0000      Cuts: 44    14583    2.74%
      0     0      300.0000   244      292.0000      Cuts: 10    19997    2.74%
Detecting symmetries...
      0     0      300.0000   689      292.0000      Cuts: 25    24445    2.74%
Detecting symmetries...
      0     2      300.0000   142      292.0000      300.0000    24445    2.74%
Elapsed time = 145.60 sec. (165107.30 ticks, tree = 0.01 MB, solutions = 6)
      1     3      300.0000   278      292.0000      300.0000    31718    2.74%
      2     4      300.0000   144      292.0000      300.0000    35063    2.74%
      3     5      300.0000   144      292.0000      300.0000    37094    2.74%
      4     6      300.0000   220      292.0000      300.0000    40649    2.74%
      5     7      300.0000   149      292.0000      300.0000    44184    2.74%
      6     8      300.0000   271      292.0000      300.0000    62509    2.74%
      7     9      300.0000   154      292.0000      300.0000    67735    2.74%
      8    10      300.0000   164      292.0000      300.0000    68689    2.74%
      9    11      300.0000  1139      292.0000      300.0000    76522    2.74%
     10    12      300.0000   265      292.0000      300.0000    77640    2.74%
Elapsed time = 166.82 sec. (187360.15 ticks, tree = 0.06 MB, solutions = 6)
     12    14      300.0000   240      292.0000      300.0000    88695    2.74%
     15    17      300.0000   143      292.0000      300.0000    92840    2.74%
     16    18      300.0000   732      292.0000      300.0000   108649    2.74%
     18    20      300.0000   619      292.0000      300.0000   114587    2.74%
     20    22      300.0000   491      292.0000      300.0000   118739    2.74%
     21    23      300.0000   506      292.0000      300.0000   124656    2.74%
     23    25      300.0000   190      292.0000      300.0000   127232    2.74%
     24    26      300.0000   196      292.0000      300.0000   129365    2.74%
     25    27      300.0000   312      292.0000      300.0000   140967    2.74%
     26    28      300.0000   783      292.0000      300.0000   147923    2.74%
Elapsed time = 196.85 sec. (218702.64 ticks, tree = 0.15 MB, solutions = 6)
     27    29      300.0000   217      292.0000      300.0000   150073    2.74%
     29    31      300.0000   258      292.0000      300.0000   154150    2.74%
     30    32      300.0000   194      292.0000      300.0000   158994    2.74%
     32    34      300.0000   198      292.0000      300.0000   159782    2.74%
     33    35      300.0000   165      292.0000      300.0000   163408    2.74%
     34    36      300.0000   165      292.0000      300.0000   165231    2.74%
     35    37      300.0000   198      292.0000      300.0000   167090    2.74%
     36    38      300.0000   688      292.0000      300.0000   173043    2.74%
     38    40      300.0000   183      292.0000      300.0000   173776    2.74%
     39    41      300.0000   191      292.0000      300.0000   175303    2.74%
Elapsed time = 214.03 sec. (236083.01 ticks, tree = 0.29 MB, solutions = 6)
     40    42      300.0000   193      292.0000      300.0000   179030    2.74%
     41    43      300.0000   778      292.0000      300.0000   183985    2.74%
     42    44      300.0000   215      292.0000      300.0000   194849    2.74%
     43    45      300.0000   270      292.0000      300.0000   199606    2.74%
     44    46      300.0000   386      292.0000      300.0000   202188    2.74%
     46    48      300.0000   313      292.0000      300.0000   202408    2.74%
     47    49      300.0000   370      292.0000      300.0000   205252    2.74%
     50    52      300.0000   294      292.0000      300.0000   205379    2.74%
     52    54      300.0000   500      292.0000      300.0000   209358    2.74%
     53    55      300.0000   666      292.0000      300.0000   212977    2.74%
Elapsed time = 234.69 sec. (257369.53 ticks, tree = 0.54 MB, solutions = 6)
     56    58      300.0000   272      292.0000      300.0000   213147    2.74%
     57    59      300.0000   285      292.0000      300.0000   215551    2.74%
     58    60      300.0000   212      292.0000      300.0000   218004    2.74%
     59    61      300.0000   305      292.0000      300.0000   221881    2.74%
     60    62      300.0000   362      292.0000      300.0000   225924    2.74%
     62    64      300.0000   236      292.0000      300.0000   226554    2.74%
     64    66      300.0000   248      292.0000      300.0000   232333    2.74%
     66    68      300.0000   486      292.0000      300.0000   236806    2.74%
     68    70      300.0000   291      292.0000      300.0000   240014    2.74%
     70    72      300.0000   349      292.0000      300.0000   243829    2.74%
Elapsed time = 254.71 sec. (277429.67 ticks, tree = 0.89 MB, solutions = 6)
     72    74      300.0000   267      292.0000      300.0000   245265    2.74%
     74    76      300.0000   246      292.0000      300.0000   249425    2.74%
     75    77      300.0000   429      292.0000      300.0000   254140    2.74%
     77    79      300.0000   305      292.0000      300.0000   259585    2.74%
     79    81      300.0000   300      292.0000      300.0000   264515    2.74%
     80    82      300.0000   242      292.0000      300.0000   266653    2.74%
     81    83      300.0000   396      292.0000      300.0000   271769    2.74%
     82    84      300.0000   374      292.0000      300.0000   273780    2.74%
     84    86      300.0000   639      292.0000      300.0000   280299    2.74%
     86    88      300.0000   326      292.0000      300.0000   283222    2.74%
Elapsed time = 276.11 sec. (298793.10 ticks, tree = 1.14 MB, solutions = 6)
     87    89      300.0000   306      292.0000      300.0000   284938    2.74%
     88    90      300.0000   457      292.0000      300.0000   289327    2.74%
     90    92      300.0000   277      292.0000      300.0000   289593    2.74%
     91    93      300.0000   294      292.0000      300.0000   291585    2.74%
     92    94      300.0000   272      292.0000      300.0000   296083    2.74%
     93    95      300.0000   346      292.0000      300.0000   299530    2.74%
     95    97      300.0000   375      292.0000      300.0000   303661    2.74%
     97    99      300.0000   272      292.0000      300.0000   304857    2.74%
     98   100      300.0000   304      292.0000      300.0000   310790    2.74%
     99   101      300.0000   294      292.0000      300.0000   312205    2.74%
Elapsed time = 293.22 sec. (315744.28 ticks, tree = 1.35 MB, solutions = 6)
    100   102      300.0000   288      292.0000      300.0000   312579    2.74%
    102   104      300.0000   287      292.0000      300.0000   316025    2.74%
    103   105      300.0000   438      292.0000      300.0000   320166    2.74%
    105   107      300.0000   269      292.0000      300.0000   323200    2.74%
    106   108      300.0000   415      292.0000      300.0000   327720    2.74%
    108   110      300.0000   392      292.0000      300.0000   333515    2.74%
    109   111      300.0000   254      292.0000      300.0000   335651    2.74%
    110   112      300.0000   243      292.0000      300.0000   344754    2.74%
    111   113      300.0000   505      292.0000      300.0000   350464    2.74%
    112   114      300.0000   246      292.0000      300.0000   353262    2.74%
Elapsed time = 333.06 sec. (354545.64 ticks, tree = 1.59 MB, solutions = 6)
    113   115      300.0000   511      292.0000      300.0000   358955    2.74%
    114   116      300.0000   236      292.0000      300.0000   360395    2.74%
    115   117      300.0000   274      292.0000      300.0000   364489    2.74%
    116   118      300.0000   253      292.0000      300.0000   366413    2.74%
    118   120      300.0000   385      292.0000      300.0000   371726    2.74%
    119   121      300.0000   227      292.0000      300.0000   373588    2.74%
    120   122      300.0000   235      292.0000      300.0000   377364    2.74%
    121   123      300.0000   289      292.0000      300.0000   380989    2.74%
    122   124      300.0000   329      292.0000      300.0000   385190    2.74%
    123   125      300.0000   291      292.0000      300.0000   388645    2.74%
Elapsed time = 350.36 sec. (371664.25 ticks, tree = 1.77 MB, solutions = 6)
    124   126      300.0000   278      292.0000      300.0000   392782    2.74%
    125   127      300.0000   529      292.0000      300.0000   396935    2.74%
    127   129      300.0000   416      292.0000      300.0000   402823    2.74%
    128   130      300.0000   265      292.0000      300.0000   405645    2.74%
    130   132      300.0000   244      292.0000      300.0000   406528    2.74%
    131   133      300.0000   258      292.0000      300.0000   408144    2.74%
    132   134      300.0000   231      292.0000      300.0000   413454    2.74%
    133   135      300.0000   232      292.0000      300.0000   416534    2.74%
    134   136      300.0000   358      292.0000      300.0000   419409    2.74%
    136   138      300.0000   765      292.0000      300.0000   429221    2.74%
Elapsed time = 370.84 sec. (392075.38 ticks, tree = 1.98 MB, solutions = 6)
    139   141      300.0000   295      292.0000      300.0000   437487    2.74%
    142   144      300.0000   291      292.0000      300.0000   446921    2.74%
    146   148      300.0000   536      292.0000      300.0000   457476    2.74%
    148   150      300.0000   270      292.0000      300.0000   475142    2.74%
    151   153      300.0000   415      292.0000      300.0000   495808    2.74%
    154   156      300.0000   321      292.0000      300.0000   506197    2.74%
    158   160      300.0000   342      292.0000      300.0000   515881    2.74%
    160   162      300.0000   444      292.0000      300.0000   525172    2.74%
    163   165      300.0000   548      292.0000      300.0000   536976    2.74%
    167   169      300.0000   476      292.0000      300.0000   546124    2.74%
Elapsed time = 423.93 sec. (444364.40 ticks, tree = 2.47 MB, solutions = 6)
    173   175      300.0000   407      292.0000      300.0000   553838    2.74%
    176   178      300.0000   334      292.0000      300.0000   561945    2.74%
    179   181      300.0000   344      292.0000      300.0000   572000    2.74%
    183   185      300.0000   333      292.0000      300.0000   584060    2.74%
    186   188      300.0000   318      292.0000      300.0000   593152    2.74%
    189   191      300.0000   473      292.0000      300.0000   606754    2.74%
    193   195      300.0000   389      292.0000      300.0000   618369    2.74%
    196   198      300.0000   586      292.0000      300.0000   632451    2.74%
    199   201      300.0000   408      292.0000      300.0000   641403    2.74%
    201   203      300.0000   472      292.0000      300.0000   652796    2.74%
Elapsed time = 472.51 sec. (491950.62 ticks, tree = 2.97 MB, solutions = 6)
    204   206      300.0000   456      292.0000      300.0000   663039    2.74%
    208   210      300.0000   304      292.0000      300.0000   673943    2.74%
    210   212      300.0000   326      292.0000      300.0000   689319    2.74%
    213   215      300.0000   259      292.0000      300.0000   702577    2.74%
    217   219      300.0000   206      292.0000      300.0000   714468    2.74%
    219   221      300.0000   267      292.0000      300.0000   728406    2.74%
    220   222      300.0000   329      292.0000      300.0000   734940    2.74%
    222   222      300.0000   306      292.0000      300.0000   746910    2.74%
    225   224      299.9231   385      292.0000      300.0000   767925    2.74%
    227   226      300.0000   178      292.0000      300.0000   779616    2.74%
Elapsed time = 529.28 sec. (547138.03 ticks, tree = 3.34 MB, solutions = 6)
    228   227      300.0000   347      292.0000      300.0000   792393    2.74%
    230   229      300.0000   177      292.0000      300.0000   822899    2.74%
    232   230      299.7692   388      292.0000      300.0000   836665    2.74%
    234   232      300.0000   211      292.0000      300.0000   849380    2.74%
    238   235      299.6154   350      292.0000      300.0000   871852    2.74%
    240   236      299.6154   311      292.0000      300.0000   888217    2.74%
    242   237      300.0000   222      292.0000      300.0000   902125    2.74%
    246   239      300.0000   214      292.0000      300.0000   914483    2.74%
    248   241      300.0000   293      292.0000      300.0000   927128    2.74%
    250   243      300.0000   325      292.0000      300.0000   942432    2.74%
Elapsed time = 582.36 sec. (597983.20 ticks, tree = 3.60 MB, solutions = 6)
    253   246      300.0000   230      292.0000      300.0000   955359    2.74%
    256   249      300.0000   380      292.0000      300.0000   973010    2.74%
    257   249      299.6154   310      292.0000      300.0000   986283    2.74%

Clique cuts applied:  24
Zero-half cuts applied:  18

Root node processing (before b&c):
  Real time             =  145.54 sec. (165054.18 ticks)
Sequential b&c:
  Real time             =  454.46 sec. (449999.69 ticks)
                          ------------
Total (root+branch&cut) =  600.00 sec. (615053.87 ticks)
Primal:	292
Dual:	300
Status:	Feasible
Time:	599.98
Sequence:
	9
	2
	23
	15
	10
	21
	24
	1
	10
	22
	20
	15
	9
	21
	24
	6
	12
	17
	13
	8
	14
	17
	11
	19
	18
	19
	12
	8
	13
	4
	0
	1
	20
	22
	10
	1
	16
	5
	10
	15
	16
	21
	9
	15
	23
	2
	16
	1
	20
	22
	20
	1
	24
	21
	16
	5
	3
	0
	3
	14
	8
	12
	19
	0
	3
	18
	3
	0
	19
	12
	8
	12
	19
	0
	3
	12
	8
	21
	16
	5
	20
	22
	23
	21
	24
	6
	18
	4
	13
	15
	20
	21
	24
	1
	23
	2
	20
	15
	9
	21
	16
	1
	9
	2
	20
	15
	10
	5
	24
	6
	9
	2
	23
	6
	0
	4
	15
	23
	2
	10
	15
	11
	7
	18
	19
	15
	10
	5
	24
	6
	18
	21
	23
	15
	10
	21
	8
	11
	4
	0
	6
	3
	18
	17
	13
	19
	18
	17
	1
	20
	2
	9
	1
	24
	21
	10
	15
	11
	4
	0
	19
	11
	17
	14
	8
	13
	4
	18
	19
	11
	2
	9
	1
	16
	5
	10
	15
	3
	0
	4
	13
	8
	14
	4
	15
	19
	14
	17
	13
	3
	18
	7
	13
	8
	12
	17
	13
	19
	0
	4
	11
	8
	0
	21
	23
	15
	18
	21
	16
	1
	9
	2
	20
	15
	9
	5
	16
	6
	12
	17
	11
	19
	0
	17
	11
	3
	0
	7
	11
	8
	14
	17
	13
	3
	0
	4
	13
	8
	14
	17
	11
	19
	18
	7
	11
	8
	14
	17
	13
	3
	0
	4
	1
	16
	5
	10
	15
	23
	2
	9
	6
	24
	21
	18
	1
	20
	22
	10
	1
	24
	2
	9
	6
	24
	5
	10
	15
	20
	22
	9
	6
	24
	21
	9
	15
	20
	21
	17
	11
	3
	0
	7
